100
32
6
31
12
16
26
2
10
12
12
30
16
6
16
4
21
6
2
12
3
2
24
1
12
12
1
1
1
2
21
2
1
12
3
2
18
18
2
4
9
11
16
2
2
1
1
2
2
1
2
5
3
1
18
2
1
1
6
1
1
23
1
1
3
1
1
4
17
5
2
17
1
2
5
3
2
1
3
1
1
4
5
1
19
4
7
2
19
4
1
1
1
4
4
1
1
2
7
1
19
1